\Generated by Cardinal Operations

Maximize
   169 x_1 + 89.90000000000001 x_2 + 169 x_3 + 59.9 x_4 + 39.9 x_5 
   + 39.9 x_6 + 89.90000000000001 x_7 + 45.9 x_8 + 49.9 x_9 
   + 79.90000000000001 x_10 + 39.9 x_11 + 59.9 x_12 + 59.9 x_13 
   + 69.90000000000001 x_14 + 69.90000000000001 x_15 + 7.99 x_16 
   + 35.9 x_17 + 29.9 x_18 + 27.9 x_19 + 27.9 x_20 + 19.99 x_21 + 19.9 x_22 
   + 109 x_23 + 69.90000000000001 x_24 + 129 x_25 + 89.90000000000001 x_26 
   + 69.90000000000001 x_27 + 49.9 x_28 + 169 x_29 + 59.9 x_30 
   + 89.90000000000001 x_31 + 69.90000000000001 x_32 
   + 89.90000000000001 x_33 + 45.9 x_34 + 59.9 x_35 
   + 89.90000000000001 x_36 + 69.90000000000001 x_37 + 59.9 x_38 
   + 79.90000000000001 x_39 + 129 x_40 + 109 x_41 + 109 x_42 
   + 89.90000000000001 x_43 + 29.99 x_44 + 89.90000000000001 x_45 
   + 129 x_46 + 439 x_47 + 69.90000000000001 x_48 + 89.90000000000001 x_49 
   + 39.9 x_50 + 129 x_51 + 12.99 x_52 + 139 x_53 + 59.9 x_54 
   + 89.90000000000001 x_55 + 79.90000000000001 x_56 + 35.9 x_57 
   + 69.90000000000001 x_58 + 99.90000000000001 x_59 
   + 99.90000000000001 x_60 + 159 x_61 + 69.98999999999999 x_62 
   + 99.90000000000001 x_63 + 89.90000000000001 x_64 
   + 69.90000000000001 x_65 + 89.90000000000001 x_66 
   + 69.90000000000001 x_67 + 89.90000000000001 x_68 + 39.9 x_69 
   + 45.9 x_70 + 109 x_71 + 109 x_72 + 69.90000000000001 x_73 + 47.9 x_74 
   + 47.9 x_75 + 89.90000000000001 x_76 + 39.9 x_77 + 129 x_78 + 7.99 x_79 
   + 79.90000000000001 x_80 + 129 x_81 + 69.90000000000001 x_82 + 129 x_83 
   + 19.99 x_84 + 139 x_85 + 109 x_86 + 59.9 x_87 + 49.9 x_88 + 45.9 x_89 
   + 39.9 x_90 + 69.90000000000001 x_91 + 49.9 x_92 + 49.9 x_93 + 45.9 x_94 
   + 169 x_95 + 299 x_96 + 49.9 x_97 + 19.99 x_98 + 169 x_99 + 49.9 x_100 
   + 109 x_101 + 139 x_102 + 89.90000000000001 x_103 + 49.9 x_104 
   + 45.9 x_105 + 69.90000000000001 x_106 + 49.9 x_107 + 59.9 x_108 
   + 59.9 x_109 + 39.9 x_110 + 89.90000000000001 x_111 + 159 x_112 
   + 49.9 x_113 + 89.90000000000001 x_114 + 79.90000000000001 x_115 
   + 89.90000000000001 x_116 + 19.99 x_117 + 89.90000000000001 x_118 
   + 69.90000000000001 x_119 + 19.99 x_120 + 49.9 x_121 
   + 89.90000000000001 x_122 + 89.90000000000001 x_123 + 129 x_124 
   + 89.90000000000001 x_125 + 129 x_126 + 39.9 x_127 + 12.99 x_128 
   + 89.90000000000001 x_129 + 12.99 x_130 + 109 x_131 + 39.9 x_132 
   + 9.99 x_133 + 59.9 x_134 + 9.99 x_135 + 79.90000000000001 x_136 
   + 109 x_137 + 49.9 x_138 + 69.90000000000001 x_139 
   + 69.90000000000001 x_140 + 45.9 x_141 + 129 x_142 + 39.9 x_143 
   + 129 x_144 + 45.9 x_145 + 59.9 x_146 + 129 x_147 + 47.9 x_148 
   + 39.9 x_149 + 49.9 x_150 + 69.90000000000001 x_151 + 45.9 x_152 
   + 89.90000000000001 x_153 + 89.90000000000001 x_154 + 59.9 x_155 
   + 349 x_156 + 69.90000000000001 x_157 + 89.90000000000001 x_158 
   + 59.9 x_159 + 69.90000000000001 x_160 + 69.90000000000001 x_161 
   + 49.9 x_162 + 169 x_163 + 159 x_164 + 99.90000000000001 x_165 
   + 109 x_166 + 109 x_167 + 139 x_168 + 39.9 x_169 
   + 89.90000000000001 x_170 + 79.90000000000001 x_171 
   + 89.90000000000001 x_172 + 69.90000000000001 x_173 
   + 69.90000000000001 x_174 + 89.90000000000001 x_175 + 45.9 x_176 
   + 169 x_177 + 109 x_178 + 47.9 x_179 + 299 x_180 + 45.9 x_181 
   + 109 x_182 + 99.90000000000001 x_183 + 169 x_184 
   + 69.90000000000001 x_185 + 159 x_186 + 109 x_187 + 49.9 x_188 
   + 169 x_189 + 189 x_190 + 49.9 x_191 + 69.90000000000001 x_192 
   + 59.9 x_193 + 109 x_194 
Subject To
 inventory_constraint: x_1 <= 30030
 x_2 <= 24740
 x_3 <= 19160
 x_4 <= 5290
 x_5 <= 20930
 x_6 <= 9960
 x_7 <= 19170
 x_8 <= 9910
 x_9 <= 9940
 x_10 <= 17360
 x_11 <= 28630
 x_12 <= 28770
 x_13 <= 15630
 x_14 <= 29840
 x_15 <= 20840
 x_16 <= 27430
 x_17 <= 24340
 x_18 <= 18310
 x_19 <= 27780
 x_20 <= 19610
 x_21 <= 28230
 x_22 <= 11800
 x_23 <= 42600
 x_24 <= 17330
 x_25 <= 51700
 x_26 <= 27910
 x_27 <= 17780
 x_28 <= 14350
 x_29 <= 25720
 x_30 <= 27340
 x_31 <= 21930
 x_32 <= 9230
 x_33 <= 20600
 x_34 <= 16690
 x_35 <= 12780
 x_36 <= 27490
 x_37 <= 23970
 x_38 <= 26060
 x_39 <= 39700
 x_40 <= 70500
 x_41 <= 15060
 x_42 <= 7580
 x_43 <= 28590
 x_44 <= 29290
 x_45 <= 28050
 x_46 <= 35400
 x_47 <= 18690
 x_48 <= 20190
 x_49 <= 11650
 x_50 <= 27590
 x_51 <= 41300
 x_52 <= 16850
 x_53 <= 29420
 x_54 <= 28360
 x_55 <= 22730
 x_56 <= 20650
 x_57 <= 20970
 x_58 <= 71970
 x_59 <= 32730
 x_60 <= 71130
 x_61 <= 34910
 x_62 <= 64010
 x_63 <= 20760
 x_64 <= 12490
 x_65 <= 50300
 x_66 <= 24570
 x_67 <= 24430
 x_68 <= 7070
 x_69 <= 28350
 x_70 <= 21790
 x_71 <= 14660
 x_72 <= 7180
 x_73 <= 9430
 x_74 <= 17520
 x_75 <= 29010
 x_76 <= 27490
 x_77 <= 18660
 x_78 <= 36570
 x_79 <= 5420
 x_80 <= 28780
 x_81 <= 14480
 x_82 <= 11350
 x_83 <= 10410
 x_84 <= 34340
 x_85 <= 7300
 x_86 <= 33150
 x_87 <= 24940
 x_88 <= 6060
 x_89 <= 16080
 x_90 <= 15520
 x_91 <= 27600
 x_92 <= 21410
 x_93 <= 6220
 x_94 <= 8670
 x_95 <= 48560
 x_96 <= 25480
 x_97 <= 66940
 x_98 <= 17170
 x_99 <= 28490
 x_100 <= 8970
 x_101 <= 6280
 x_102 <= 10940
 x_103 <= 24660
 x_104 <= 19420
 x_105 <= 28520
 x_106 <= 22400
 x_107 <= 35410
 x_108 <= 14660
 x_109 <= 7430
 x_110 <= 19780
 x_111 <= 7060
 x_112 <= 38940
 x_113 <= 12040
 x_114 <= 45830
 x_115 <= 20670
 x_116 <= 25390
 x_117 <= 24340
 x_118 <= 64460
 x_119 <= 109100
 x_120 <= 29890
 x_121 <= 6240
 x_122 <= 20400
 x_123 <= 16590
 x_124 <= 44970
 x_125 <= 73860
 x_126 <= 20710
 x_127 <= 9170
 x_128 <= 21350
 x_129 <= 27290
 x_130 <= 28870
 x_131 <= 23250
 x_132 <= 19150
 x_133 <= 25560
 x_134 <= 12960
 x_135 <= 24910
 x_136 <= 17960
 x_137 <= 57470
 x_138 <= 16050
 x_139 <= 24780
 x_140 <= 29140
 x_141 <= 7290
 x_142 <= 50210
 x_143 <= 25910
 x_144 <= 24980
 x_145 <= 8180
 x_146 <= 47620
 x_147 <= 15680
 x_148 <= 27280
 x_149 <= 8810
 x_150 <= 11050
 x_151 <= 8800
 x_152 <= 34150
 x_153 <= 12690
 x_154 <= 22110
 x_155 <= 8920
 x_156 <= 18600
 x_157 <= 13500
 x_158 <= 21640
 x_159 <= 15000
 x_160 <= 11910
 x_161 <= 38900
 x_162 <= 16780
 x_163 <= 32880
 x_164 <= 60750
 x_165 <= 18990
 x_166 <= 14740
 x_167 <= 18410
 x_168 <= 33640
 x_169 <= 15530
 x_170 <= 16330
 x_171 <= 20630
 x_172 <= 6470
 x_173 <= 18470
 x_174 <= 15240
 x_175 <= 12450
 x_176 <= 14980
 x_177 <= 6540
 x_178 <= 10120
 x_179 <= 5580
 x_180 <= 21790
 x_181 <= 20450
 x_182 <= 16220
 x_183 <= 25530
 x_184 <= 14010
 x_185 <= 10940
 x_186 <= 21850
 x_187 <= 25740
 x_188 <= 15920
 x_189 <= 22770
 x_190 <= 23660
 x_191 <= 12370
 x_192 <= 21140
 x_193 <= 14120
 x_194 <= 15060
 demand_constraint: x_1 <= 4030
 x_2 <= 3348
 x_3 <= 2609
 x_4 <= 736
 x_5 <= 2777
 x_6 <= 1238
 x_7 <= 2683
 x_8 <= 1369
 x_9 <= 1367
 x_10 <= 2455
 x_11 <= 3465
 x_12 <= 3479
 x_13 <= 2325
 x_14 <= 3675
 x_15 <= 3030
 x_16 <= 4078
 x_17 <= 3528
 x_18 <= 2714
 x_19 <= 3693
 x_20 <= 2599
 x_21 <= 4026
 x_22 <= 1725
 x_23 <= 5849
 x_24 <= 2509
 x_25 <= 6710
 x_26 <= 3995
 x_27 <= 2171
 x_28 <= 1723
 x_29 <= 3636
 x_30 <= 3969
 x_31 <= 2688
 x_32 <= 1221
 x_33 <= 2700
 x_34 <= 2229
 x_35 <= 1540
 x_36 <= 3929
 x_37 <= 3289
 x_38 <= 3249
 x_39 <= 5709
 x_40 <= 10061
 x_41 <= 2132
 x_42 <= 933
 x_43 <= 3964
 x_44 <= 4170
 x_45 <= 3468
 x_46 <= 4889
 x_47 <= 2558
 x_48 <= 3020
 x_49 <= 1444
 x_50 <= 4024
 x_51 <= 5870
 x_52 <= 2492
 x_53 <= 3834
 x_54 <= 3594
 x_55 <= 3267
 x_56 <= 2966
 x_57 <= 3025
 x_58 <= 9585
 x_59 <= 4486
 x_60 <= 10322
 x_61 <= 4868
 x_62 <= 8482
 x_63 <= 2607
 x_64 <= 1784
 x_65 <= 6626
 x_66 <= 3256
 x_67 <= 2955
 x_68 <= 910
 x_69 <= 4054
 x_70 <= 3154
 x_71 <= 2100
 x_72 <= 1014
 x_73 <= 1358
 x_74 <= 2344
 x_75 <= 4183
 x_76 <= 3575
 x_77 <= 2517
 x_78 <= 4910
 x_79 <= 658
 x_80 <= 4094
 x_81 <= 1921
 x_82 <= 1513
 x_83 <= 1370
 x_84 <= 4542
 x_85 <= 882
 x_86 <= 4513
 x_87 <= 3420
 x_88 <= 866
 x_89 <= 2260
 x_90 <= 1970
 x_91 <= 3380
 x_92 <= 2803
 x_93 <= 773
 x_94 <= 1154
 x_95 <= 6458
 x_96 <= 3681
 x_97 <= 9040
 x_98 <= 2112
 x_99 <= 3820
 x_100 <= 1142
 x_101 <= 873
 x_102 <= 1612
 x_103 <= 3180
 x_104 <= 2723
 x_105 <= 3594
 x_106 <= 2855
 x_107 <= 4743
 x_108 <= 1982
 x_109 <= 1102
 x_110 <= 2614
 x_111 <= 889
 x_112 <= 5607
 x_113 <= 1742
 x_114 <= 6572
 x_115 <= 2883
 x_116 <= 3249
 x_117 <= 3251
 x_118 <= 8716
 x_119 <= 14546
 x_120 <= 4287
 x_121 <= 864
 x_122 <= 3021
 x_123 <= 2343
 x_124 <= 6415
 x_125 <= 9889
 x_126 <= 2540
 x_127 <= 1251
 x_128 <= 2800
 x_129 <= 3808
 x_130 <= 3771
 x_131 <= 3245
 x_132 <= 2710
 x_133 <= 3247
 x_134 <= 1587
 x_135 <= 3069
 x_136 <= 2178
 x_137 <= 7756
 x_138 <= 2066
 x_139 <= 3645
 x_140 <= 4026
 x_141 <= 1020
 x_142 <= 7285
 x_143 <= 3338
 x_144 <= 3313
 x_145 <= 1202
 x_146 <= 6530
 x_147 <= 2264
 x_148 <= 3286
 x_149 <= 1314
 x_150 <= 1483
 x_151 <= 1107
 x_152 <= 4727
 x_153 <= 1806
 x_154 <= 3155
 x_155 <= 1260
 x_156 <= 2362
 x_157 <= 1968
 x_158 <= 2699
 x_159 <= 1831
 x_160 <= 1491
 x_161 <= 5012
 x_162 <= 2315
 x_163 <= 4729
 x_164 <= 8148
 x_165 <= 2573
 x_166 <= 1975
 x_167 <= 2349
 x_168 <= 4279
 x_169 <= 2155
 x_170 <= 2425
 x_171 <= 2506
 x_172 <= 832
 x_173 <= 2448
 x_174 <= 1940
 x_175 <= 1517
 x_176 <= 2008
 x_177 <= 952
 x_178 <= 1320
 x_179 <= 824
 x_180 <= 2714
 x_181 <= 2458
 x_182 <= 2309
 x_183 <= 3434
 x_184 <= 1749
 x_185 <= 1335
 x_186 <= 3063
 x_187 <= 3172
 x_188 <= 2230
 x_189 <= 2912
 x_190 <= 2916
 x_191 <= 1659
 x_192 <= 2934
 x_193 <= 2030
 x_194 <= 2237
Generals
 x_1  x_2  x_3  x_4  x_5  x_6  x_7  x_8  x_9  x_10  x_11  x_12  x_13  x_14  
 x_15  x_16  x_17  x_18  x_19  x_20  x_21  x_22  x_23  x_24  x_25  x_26  
 x_27  x_28  x_29  x_30  x_31  x_32  x_33  x_34  x_35  x_36  x_37  x_38  
 x_39  x_40  x_41  x_42  x_43  x_44  x_45  x_46  x_47  x_48  x_49  x_50  
 x_51  x_52  x_53  x_54  x_55  x_56  x_57  x_58  x_59  x_60  x_61  x_62  
 x_63  x_64  x_65  x_66  x_67  x_68  x_69  x_70  x_71  x_72  x_73  x_74  
 x_75  x_76  x_77  x_78  x_79  x_80  x_81  x_82  x_83  x_84  x_85  x_86  
 x_87  x_88  x_89  x_90  x_91  x_92  x_93  x_94  x_95  x_96  x_97  x_98  
 x_99  x_100  x_101  x_102  x_103  x_104  x_105  x_106  x_107  x_108  
 x_109  x_110  x_111  x_112  x_113  x_114  x_115  x_116  x_117  x_118  
 x_119  x_120  x_121  x_122  x_123  x_124  x_125  x_126  x_127  x_128  
 x_129  x_130  x_131  x_132  x_133  x_134  x_135  x_136  x_137  x_138  
 x_139  x_140  x_141  x_142  x_143  x_144  x_145  x_146  x_147  x_148  
 x_149  x_150  x_151  x_152  x_153  x_154  x_155  x_156  x_157  x_158  
 x_159  x_160  x_161  x_162  x_163  x_164  x_165  x_166  x_167  x_168  
 x_169  x_170  x_171  x_172  x_173  x_174  x_175  x_176  x_177  x_178  
 x_179  x_180  x_181  x_182  x_183  x_184  x_185  x_186  x_187  x_188  
 x_189  x_190  x_191  x_192  x_193  x_194  
END

